
Gurobi 10.0.3 (linux64, gurobi_cl) logging started Thu Nov  2 11:34:26 2023

Set parameter Username
Set parameter TimeLimit to value 3600
Set parameter LogFile to value "RCPSP_540.log"
Set parameter Threads to value 32
Academic license - for non-commercial use only - expires 2024-10-30
Using license file /home/jrivera6/gurobi-licenses/v1003/compute-0-34/gurobi.lic

Gurobi Optimizer version 10.0.3 build v10.0.3rc0 (linux64)
Copyright (c) 2023, Gurobi Optimization, LLC

Read MPS format model from file RCPSP_540.mps
Reading time = 0.02 seconds
RCPSP_540: 19624 rows, 7750 columns, 64639 nonzeros

CPU model: Intel(R) Xeon(R) Gold 6130 CPU @ 2.10GHz, instruction set [SSE2|AVX|AVX2|AVX512]
Thread count: 32 physical cores, 32 logical processors, using up to 32 threads

Optimize a model with 19624 rows, 7750 columns and 64639 nonzeros
Model fingerprint: 0xcbf89469
Variable types: 62 continuous, 7688 integer (7688 binary)
Coefficient statistics:
  Matrix range     [1e+00, 3e+02]
  Objective range  [1e+00, 1e+00]
  Bounds range     [1e+00, 1e+00]
  RHS range        [1e+00, 3e+02]
Presolve removed 6859 rows and 2341 columns
Presolve time: 2.43s
Presolved: 12765 rows, 5409 columns, 43837 nonzeros
Variable types: 61 continuous, 5348 integer (5348 binary)

Root relaxation: objective 7.400000e+01, 1806 iterations, 0.05 seconds (0.02 work units)

    Nodes    |    Current Node    |     Objective Bounds      |     Work
 Expl Unexpl |  Obj  Depth IntInf | Incumbent    BestBd   Gap | It/Node Time

     0     0   74.00000    0   16          -   74.00000      -     -    2s
     0     0   74.00000    0  104          -   74.00000      -     -    6s
     0     0   74.00000    0    6          -   74.00000      -     -    7s
     0     0   74.00000    0   10          -   74.00000      -     -    8s
     0     0   74.00000    0   10          -   74.00000      -     -    8s
H    0     0                      74.0000000   74.00000  0.00%     -    9s
     0     0   74.00000    0    2   74.00000   74.00000  0.00%     -    9s

Cutting planes:
  Gomory: 2
  Cover: 3
  Implied bound: 19
  Clique: 1
  MIR: 64
  StrongCG: 1
  RLT: 15
  Relax-and-lift: 4

Explored 1 nodes (10367 simplex iterations) in 9.48 seconds (3.04 work units)
Thread count was 32 (of 32 available processors)

Solution count 1: 74 

Optimal solution found (tolerance 1.00e-04)
Best objective 7.400000000000e+01, best bound 7.400000000000e+01, gap 0.0000%

Wrote result file 'RCPSP_540.sol'

